
Gurobi 6.5.2 (linux64) logging started Mon Aug 29 10:57:55 2016

Optimize a model with 101 rows, 908 columns and 2045 nonzeros
Coefficient statistics:
  Matrix range    [1e+00, 2e+00]
  Objective range [1e+00, 1e+02]
  Bounds range    [1e+00, 1e+00]
  RHS range       [1e+00, 1e+00]
Found heuristic solution: objective 922
Presolve removed 35 rows and 2 columns
Presolve time: 0.00s
Presolved: 66 rows, 906 columns, 1836 nonzeros
Variable types: 0 continuous, 906 integer (906 binary)

Root relaxation: objective 3.202500e+02, 56 iterations, 0.00 seconds

    Nodes    |    Current Node    |     Objective Bounds      |     Work
 Expl Unexpl |  Obj  Depth IntInf | Incumbent    BestBd   Gap | It/Node Time

     0     0  320.25000    0   32  922.00000  320.25000  65.3%     -    0s
H    0     0                     565.0000000  320.25000  43.3%     -    0s
H    0     0                     529.0000000  320.25000  39.5%     -    0s
H    0     0                     490.0000000  320.25000  34.6%     -    0s
     0     0  375.11111    0   56  490.00000  375.11111  23.4%     -    0s
H    0     0                     444.0000000  375.11111  15.5%     -    0s
     0     0  395.75000    0   57  444.00000  395.75000  10.9%     -    0s
     0     0  396.08333    0   62  444.00000  396.08333  10.8%     -    0s
     0     0  398.16667    0   41  444.00000  398.16667  10.3%     -    0s
     0     0  398.16667    0   32  444.00000  398.16667  10.3%     -    0s
H    0     0                     438.0000000  398.16667  9.09%     -    0s
H    0     0                     428.0000000  398.16667  6.97%     -    0s
     0     0  398.16667    0   51  428.00000  398.16667  6.97%     -    0s
     0     0  398.16667    0   45  428.00000  398.16667  6.97%     -    0s
     0     0  408.60000    0   46  428.00000  408.60000  4.53%     -    0s
     0     0  408.60000    0   32  428.00000  408.60000  4.53%     -    0s
     0     0  408.60000    0   51  428.00000  408.60000  4.53%     -    0s
     0     0  408.60000    0   25  428.00000  408.60000  4.53%     -    0s
     0     0  409.05000    0   50  428.00000  409.05000  4.43%     -    0s
     0     0  410.23333    0   53  428.00000  410.23333  4.15%     -    0s
     0     0  411.94167    0   49  428.00000  411.94167  3.75%     -    0s
     0     0  411.94167    0   33  428.00000  411.94167  3.75%     -    0s
     0     0  411.94167    0   61  428.00000  411.94167  3.75%     -    0s
     0     0  411.94167    0   41  428.00000  411.94167  3.75%     -    0s
     0     0  412.78452    0   55  428.00000  412.78452  3.56%     -    0s
     0     0  412.80921    0   54  428.00000  412.80921  3.55%     -    0s
     0     0  413.45833    0   50  428.00000  413.45833  3.40%     -    0s
     0     0  413.75595    0   53  428.00000  413.75595  3.33%     -    0s
     0     0  413.75833    0   46  428.00000  413.75833  3.33%     -    0s
     0     0  413.76220    0   57  428.00000  413.76220  3.33%     -    0s
     0     0  413.76346    0   58  428.00000  413.76346  3.33%     -    0s
     0     0  413.77206    0   55  428.00000  413.77206  3.32%     -    0s
     0     0  413.77206    0   55  428.00000  413.77206  3.32%     -    0s
H    0     0                     425.0000000  413.77206  2.64%     -    0s
H    0     0                     421.0000000  413.77206  1.72%     -    0s
     0     0  413.77206    0   25  421.00000  413.77206  1.72%     -    0s
     0     0  413.77206    0   45  421.00000  413.77206  1.72%     -    0s
     0     0  413.77206    0   46  421.00000  413.77206  1.72%     -    0s
     0     0     cutoff    0       421.00000  420.00042  0.24%     -    0s

Cutting planes:
  Gomory: 18
  Cover: 38
  Clique: 6
  MIR: 11
  Zero half: 6

Explored 0 nodes (698 simplex iterations) in 0.18 seconds
Thread count was 8 (of 8 available processors)

Optimal solution found (tolerance 1.00e-04)
Best objective 4.210000000000e+02, best bound 4.210000000000e+02, gap 0.0%
